jobs  (incl. supersource/sink ):	52
RESOURCES
- renewable                 : 2 R
- nonrenewable              : 2 N
- doubly constrained        : 0 D
************************************************************************
PRECEDENCE RELATIONS:
jobnr.    #modes  #successors   successors
1	1	17		2 3 4 5 6 7 9 10 11 12 13 14 18 19 21 27 35 
2	3	12		50 49 48 47 45 33 32 24 23 20 16 15 
3	3	9		51 50 48 34 32 26 24 16 8 
4	3	7		49 48 47 45 24 23 16 
5	3	8		51 50 45 43 40 30 25 15 
6	3	7		50 49 44 43 25 24 17 
7	3	7		49 47 45 44 41 23 20 
8	3	6		45 44 42 31 25 22 
9	3	5		46 44 41 25 23 
10	3	8		49 48 45 44 43 41 40 25 
11	3	6		45 44 42 38 31 22 
12	3	5		47 42 30 25 24 
13	3	6		46 44 42 30 28 24 
14	3	9		48 46 43 40 38 37 30 29 28 
15	3	8		46 44 42 41 39 38 37 28 
16	3	4		41 39 30 25 
17	3	7		45 42 41 38 37 30 28 
18	3	7		47 43 40 38 37 29 28 
19	3	7		44 43 42 40 39 37 29 
20	3	3		43 42 25 
21	3	3		39 30 25 
22	3	6		43 41 40 39 37 30 
23	3	5		43 42 40 39 28 
24	3	5		40 39 38 37 36 
25	3	4		38 37 29 28 
26	3	2		36 31 
27	3	2		40 39 
28	3	1		36 
29	3	1		36 
30	3	1		36 
31	3	1		41 
32	3	1		39 
33	3	1		41 
34	3	1		36 
35	3	1		37 
36	3	1		52 
37	3	1		52 
38	3	1		52 
39	3	1		52 
40	3	1		52 
41	3	1		52 
42	3	1		52 
43	3	1		52 
44	3	1		52 
45	3	1		52 
46	3	1		52 
47	3	1		52 
48	3	1		52 
49	3	1		52 
50	3	1		52 
51	3	1		52 
52	1	0		
************************************************************************
REQUESTS/DURATIONS
jobnr.	mode	dur	R1	R2	N1	N2	
------------------------------------------------------------------------
1	1	0	0	0	0	0	
2	1	3	5	6	0	7	
	2	5	4	4	9	0	
	3	6	3	1	9	0	
3	1	2	3	7	7	0	
	2	3	3	7	0	7	
	3	6	3	4	7	0	
4	1	2	9	6	0	8	
	2	5	7	6	5	0	
	3	8	7	3	0	5	
5	1	2	7	5	0	2	
	2	3	6	4	0	2	
	3	4	3	3	4	0	
6	1	4	7	6	10	0	
	2	9	6	5	8	0	
	3	10	6	4	0	3	
7	1	2	8	5	8	0	
	2	3	8	4	8	0	
	3	5	8	3	0	2	
8	1	6	3	6	8	0	
	2	8	2	5	7	0	
	3	8	2	5	0	4	
9	1	2	5	6	10	0	
	2	7	3	5	0	5	
	3	8	3	5	0	4	
10	1	1	9	3	0	5	
	2	2	7	2	5	0	
	3	10	5	1	0	1	
11	1	8	4	6	0	5	
	2	8	3	4	6	0	
	3	10	3	2	4	0	
12	1	1	10	9	7	0	
	2	7	8	8	0	6	
	3	8	8	7	4	0	
13	1	3	6	7	0	8	
	2	4	4	6	6	0	
	3	5	3	6	2	0	
14	1	2	3	8	0	1	
	2	8	3	5	0	1	
	3	10	3	2	0	1	
15	1	3	9	7	6	0	
	2	4	8	7	6	0	
	3	7	8	7	4	0	
16	1	1	9	6	0	10	
	2	2	8	4	5	0	
	3	9	5	4	5	0	
17	1	7	8	5	6	0	
	2	9	4	4	4	0	
	3	10	1	3	2	0	
18	1	2	4	9	10	0	
	2	3	2	4	0	7	
	3	9	2	3	2	0	
19	1	3	5	2	0	2	
	2	4	4	1	7	0	
	3	9	1	1	4	0	
20	1	4	7	9	9	0	
	2	9	6	7	0	10	
	3	9	6	6	8	0	
21	1	2	8	5	6	0	
	2	5	8	3	0	9	
	3	9	7	3	0	9	
22	1	5	2	4	10	0	
	2	9	2	4	0	7	
	3	10	1	2	6	0	
23	1	1	10	6	0	4	
	2	6	5	3	0	2	
	3	7	3	1	0	1	
24	1	5	8	5	0	7	
	2	7	8	4	0	6	
	3	8	7	1	0	6	
25	1	3	10	6	0	7	
	2	6	9	5	0	6	
	3	7	9	2	2	0	
26	1	3	6	8	5	0	
	2	8	6	4	4	0	
	3	9	4	1	0	8	
27	1	5	5	6	0	5	
	2	6	5	5	0	5	
	3	6	4	5	1	0	
28	1	1	9	6	7	0	
	2	3	6	4	0	3	
	3	10	3	3	3	0	
29	1	1	8	8	0	8	
	2	5	8	7	2	0	
	3	9	7	5	2	0	
30	1	4	7	8	0	9	
	2	6	6	8	3	0	
	3	10	4	8	0	9	
31	1	1	9	10	8	0	
	2	5	6	6	8	0	
	3	7	5	3	0	2	
32	1	3	6	7	5	0	
	2	4	3	6	0	4	
	3	6	2	5	2	0	
33	1	1	4	10	10	0	
	2	2	3	8	0	6	
	3	4	3	8	0	5	
34	1	1	6	8	0	7	
	2	2	5	8	0	6	
	3	3	5	8	2	0	
35	1	1	10	10	0	4	
	2	5	9	8	0	3	
	3	9	9	5	3	0	
36	1	4	4	4	10	0	
	2	5	4	3	9	0	
	3	6	3	2	7	0	
37	1	2	8	5	0	8	
	2	3	7	4	3	0	
	3	7	6	3	0	6	
38	1	2	7	7	0	9	
	2	4	6	5	0	8	
	3	5	6	4	7	0	
39	1	3	9	7	0	10	
	2	7	6	7	0	9	
	3	8	5	3	0	9	
40	1	5	4	5	6	0	
	2	6	4	4	6	0	
	3	10	3	3	4	0	
41	1	5	5	2	0	6	
	2	6	3	1	0	6	
	3	9	3	1	5	0	
42	1	7	2	4	0	7	
	2	8	2	4	0	6	
	3	8	2	4	1	0	
43	1	5	5	9	0	5	
	2	7	5	8	4	0	
	3	8	5	5	3	0	
44	1	6	5	9	0	7	
	2	9	5	9	5	0	
	3	10	4	9	0	5	
45	1	3	8	4	0	3	
	2	5	6	3	7	0	
	3	8	5	3	3	0	
46	1	8	9	3	0	2	
	2	9	7	3	8	0	
	3	10	7	3	0	1	
47	1	1	7	10	6	0	
	2	7	7	6	4	0	
	3	8	5	5	0	4	
48	1	3	9	6	9	0	
	2	4	7	6	0	9	
	3	6	5	4	0	9	
49	1	6	4	6	4	0	
	2	7	3	6	4	0	
	3	8	2	2	4	0	
50	1	1	4	8	0	7	
	2	3	4	8	0	6	
	3	10	2	8	0	5	
51	1	1	6	4	9	0	
	2	8	4	4	0	5	
	3	9	1	4	0	4	
52	1	0	0	0	0	0	
************************************************************************

 RESOURCE AVAILABILITIES 
	R 1	R 2	N 1	N 2
	83	82	148	143

************************************************************************
